NAME: a280
DIMENSION: 18
EDGE_WEIGHT_TYPE: EUC_2D
NODE_COORD_SECTION
1 288 149
2 288 129
3 270 133
4 256 141
5 256 157
6 246 157
7 236 169
8 228 169
9 228 161
10 220 169
11 212 169
12 204 169
13 196 169
14 188 169
15 196 161
16 188 145
17 172 145
18 164 145
ACCEPTED_PROBABILITIES
0.0
0.15
0.18
0.25
0.25
0.33
0.43
0.48
0.47
0.54
0.61
0.66
0.72
0.78
0.71
0.77
0.89
0.95
OUTSOURCING_COSTS
0.0
1.47
1.76
2.43
2.43
3.16
4.12
4.63
4.49
5.22
5.81
6.32
6.91
7.5
6.84
7.35
8.53
9.12
